\ Model ex4
\ LP format - for model browsing. Use MPS format to capture full model detail.
Maximize
  150 x_1_1 + 170 x_1_2 + 150 x_2_1 + 170 x_2_2 + 80 x_3_3 + 70 x_3_4
   + 50 x_3_5 + 80 x_4_3 + 70 x_4_4 + 50 x_4_5 + 50 x_5_5 + 120 x_6_6
   + 100 x_6_7 + 100 x_6_8 + 100 x_7_7 + 100 x_7_8 + 100 x_8_8 + 140 x_9_9
   + 80 x_9_10 + 140 x_10_9 + 80 x_10_10 + 150 x_11_11 + 180 x_11_12
   + 100 x_11_13 + 150 x_12_11 + 180 x_12_12 + 100 x_12_13 + 100 x_13_13
   + 75 x_14_14 + 80 x_14_15 + 75 x_15_14 + 80 x_15_15
Subject To
 cap_102: x_1_1 + x_2_1 + x_6_7 + x_7_7 <= 108
 cap_301: x_9_10 + x_10_10 + x_14_14 + x_15_14 <= 144
 cap_201: x_3_5 + x_4_5 + x_5_5 + x_6_7 + x_7_7 + x_11_11 + x_12_11 <= 144
 cap_104: x_1_2 + x_2_2 + x_6_8 + x_7_8 + x_8_8 <= 108
 cap_202: x_3_3 + x_4_3 + x_9_10 + x_10_10 + x_11_13 + x_12_13 + x_13_13
   <= 108
 cap_302: x_3_5 + x_4_5 + x_5_5 + x_9_9 + x_10_9 <= 108
 cap_303: x_14_15 + x_15_15 <= 144
 cap_204: x_3_4 + x_4_4 <= 108
 cap_203: x_6_8 + x_7_8 + x_8_8 + x_11_12 + x_12_12 <= 108
 cap_101: x_6_6 + x_11_13 + x_12_13 + x_13_13 <= 108
 recap_1: x_1_1 + 10 x_2_1 <= 90
 recap_2: 3.333333333333333 x_1_2 + x_2_2 <= 120
 recap_3: x_3_3 + 10 x_4_3 <= 70
 recap_4: 5 x_3_4 + x_4_4 <= 100
 recap_5: 10 x_3_5 + 5 x_4_5 + x_5_5 <= 50
 recap_6: x_6_6 <= 120
 recap_7: 3.333333333333333 x_6_7 + x_7_7 <= 80
 recap_8: 10 x_6_8 + 5 x_7_8 + x_8_8 <= 70
 recap_9: x_9_9 + 10 x_10_9 <= 140
 recap_10: 5 x_9_10 + x_10_10 <= 125
 recap_11: x_11_11 + 10 x_12_11 <= 50
 recap_12: 2.5 x_11_12 + x_12_12 <= 180
 recap_13: 5 x_11_13 + 3.333333333333333 x_12_13 + x_13_13 <= 30
 recap_14: x_14_14 + 10 x_15_14 <= 75
 recap_15: 5 x_14_15 + x_15_15 <= 80
Bounds
Generals
 x_1_1 x_1_2 x_2_1 x_2_2 x_3_3 x_3_4 x_3_5 x_4_3 x_4_4 x_4_5 x_5_5 x_6_6
 x_6_7 x_6_8 x_7_7 x_7_8 x_8_8 x_9_9 x_9_10 x_10_9 x_10_10 x_11_11 x_11_12
 x_11_13 x_12_11 x_12_12 x_12_13 x_13_13 x_14_14 x_14_15 x_15_14 x_15_15
End
